\ENCODING=ISO-8859-1
\Problem name: kMIS

Maximize
 obj: x1 + x2 + x3 + x4 + x5 + x6 + x7 + x8 + x9 + x10 + x11 + x12 + x13 + x14
      + x15 + x16 + x17 + x18 + x19 + x20 + x21 + x22 + x23 + x24 + x25 + x26
      + x27 + x28 + x29 + x30 + x31 + x32 + x33 + x34 + x35
Subject To
 c1:   x36 + x37 + x38 + x39 + x40 + x41 + x42 + x43 + x44 + x45 + x46 + x47
       + x48 + x49 + x50 + x51 + x52 + x53 + x54 + x55 + x56 + x57 + x58 + x59
       + x60 + x61 + x62 + x63 + x64 + x65 + x66 + x67 + x68 + x69 + x70  = 10
 c2:   x1 + x36 <= 1
 c3:   x2 + x36 <= 1
 c4:   x4 + x36 <= 1
 c5:   x9 + x36 <= 1
 c6:   x10 + x36 <= 1
 c7:   x12 + x36 <= 1
 c8:   x13 + x36 <= 1
 c9:   x18 + x36 <= 1
 c10:  x20 + x36 <= 1
 c11:  x22 + x36 <= 1
 c12:  x24 + x36 <= 1
 c13:  x28 + x36 <= 1
 c14:  x29 + x36 <= 1
 c15:  x33 + x36 <= 1
 c16:  x35 + x36 <= 1
 c17:  x4 + x37 <= 1
 c18:  x6 + x37 <= 1
 c19:  x10 + x37 <= 1
 c20:  x11 + x37 <= 1
 c21:  x14 + x37 <= 1
 c22:  x16 + x37 <= 1
 c23:  x21 + x37 <= 1
 c24:  x25 + x37 <= 1
 c25:  x27 + x37 <= 1
 c26:  x32 + x37 <= 1
 c27:  x1 + x38 <= 1
 c28:  x2 + x38 <= 1
 c29:  x3 + x38 <= 1
 c30:  x4 + x38 <= 1
 c31:  x6 + x38 <= 1
 c32:  x8 + x38 <= 1
 c33:  x9 + x38 <= 1
 c34:  x13 + x38 <= 1
 c35:  x15 + x38 <= 1
 c36:  x18 + x38 <= 1
 c37:  x19 + x38 <= 1
 c38:  x20 + x38 <= 1
 c39:  x24 + x38 <= 1
 c40:  x25 + x38 <= 1
 c41:  x29 + x38 <= 1
 c42:  x31 + x38 <= 1
 c43:  x34 + x38 <= 1
 c44:  x1 + x39 <= 1
 c45:  x5 + x39 <= 1
 c46:  x6 + x39 <= 1
 c47:  x7 + x39 <= 1
 c48:  x8 + x39 <= 1
 c49:  x12 + x39 <= 1
 c50:  x14 + x39 <= 1
 c51:  x15 + x39 <= 1
 c52:  x21 + x39 <= 1
 c53:  x24 + x39 <= 1
 c54:  x25 + x39 <= 1
 c55:  x27 + x39 <= 1
 c56:  x30 + x39 <= 1
 c57:  x32 + x39 <= 1
 c58:  x33 + x39 <= 1
 c59:  x35 + x39 <= 1
 c60:  x2 + x40 <= 1
 c61:  x5 + x40 <= 1
 c62:  x9 + x40 <= 1
 c63:  x13 + x40 <= 1
 c64:  x15 + x40 <= 1
 c65:  x16 + x40 <= 1
 c66:  x17 + x40 <= 1
 c67:  x19 + x40 <= 1
 c68:  x23 + x40 <= 1
 c69:  x24 + x40 <= 1
 c70:  x26 + x40 <= 1
 c71:  x30 + x40 <= 1
 c72:  x32 + x40 <= 1
 c73:  x33 + x40 <= 1
 c74:  x34 + x40 <= 1
 c75:  x4 + x41 <= 1
 c76:  x6 + x41 <= 1
 c77:  x8 + x41 <= 1
 c78:  x11 + x41 <= 1
 c79:  x12 + x41 <= 1
 c80:  x13 + x41 <= 1
 c81:  x14 + x41 <= 1
 c82:  x15 + x41 <= 1
 c83:  x16 + x41 <= 1
 c84:  x17 + x41 <= 1
 c85:  x21 + x41 <= 1
 c86:  x24 + x41 <= 1
 c87:  x25 + x41 <= 1
 c88:  x26 + x41 <= 1
 c89:  x31 + x41 <= 1
 c90:  x32 + x41 <= 1
 c91:  x33 + x41 <= 1
 c92:  x35 + x41 <= 1
 c93:  x4 + x42 <= 1
 c94:  x5 + x42 <= 1
 c95:  x8 + x42 <= 1
 c96:  x10 + x42 <= 1
 c97:  x13 + x42 <= 1
 c98:  x16 + x42 <= 1
 c99:  x18 + x42 <= 1
 c100: x19 + x42 <= 1
 c101: x20 + x42 <= 1
 c102: x21 + x42 <= 1
 c103: x22 + x42 <= 1
 c104: x24 + x42 <= 1
 c105: x25 + x42 <= 1
 c106: x28 + x42 <= 1
 c107: x29 + x42 <= 1
 c108: x30 + x42 <= 1
 c109: x31 + x42 <= 1
 c110: x32 + x42 <= 1
 c111: x33 + x42 <= 1
 c112: x34 + x42 <= 1
 c113: x3 + x43 <= 1
 c114: x4 + x43 <= 1
 c115: x5 + x43 <= 1
 c116: x7 + x43 <= 1
 c117: x8 + x43 <= 1
 c118: x9 + x43 <= 1
 c119: x10 + x43 <= 1
 c120: x11 + x43 <= 1
 c121: x14 + x43 <= 1
 c122: x15 + x43 <= 1
 c123: x16 + x43 <= 1
 c124: x17 + x43 <= 1
 c125: x19 + x43 <= 1
 c126: x20 + x43 <= 1
 c127: x22 + x43 <= 1
 c128: x25 + x43 <= 1
 c129: x27 + x43 <= 1
 c130: x28 + x43 <= 1
 c131: x29 + x43 <= 1
 c132: x30 + x43 <= 1
 c133: x31 + x43 <= 1
 c134: x33 + x43 <= 1
 c135: x2 + x44 <= 1
 c136: x5 + x44 <= 1
 c137: x8 + x44 <= 1
 c138: x9 + x44 <= 1
 c139: x10 + x44 <= 1
 c140: x12 + x44 <= 1
 c141: x15 + x44 <= 1
 c142: x17 + x44 <= 1
 c143: x18 + x44 <= 1
 c144: x24 + x44 <= 1
 c145: x25 + x44 <= 1
 c146: x27 + x44 <= 1
 c147: x29 + x44 <= 1
 c148: x30 + x44 <= 1
 c149: x31 + x44 <= 1
 c150: x33 + x44 <= 1
 c151: x34 + x44 <= 1
 c152: x35 + x44 <= 1
 c153: x3 + x45 <= 1
 c154: x6 + x45 <= 1
 c155: x7 + x45 <= 1
 c156: x8 + x45 <= 1
 c157: x11 + x45 <= 1
 c158: x12 + x45 <= 1
 c159: x14 + x45 <= 1
 c160: x15 + x45 <= 1
 c161: x16 + x45 <= 1
 c162: x18 + x45 <= 1
 c163: x23 + x45 <= 1
 c164: x24 + x45 <= 1
 c165: x25 + x45 <= 1
 c166: x30 + x45 <= 1
 c167: x31 + x45 <= 1
 c168: x32 + x45 <= 1
 c169: x34 + x45 <= 1
 c170: x2 + x46 <= 1
 c171: x5 + x46 <= 1
 c172: x6 + x46 <= 1
 c173: x9 + x46 <= 1
 c174: x10 + x46 <= 1
 c175: x14 + x46 <= 1
 c176: x15 + x46 <= 1
 c177: x16 + x46 <= 1
 c178: x17 + x46 <= 1
 c179: x18 + x46 <= 1
 c180: x19 + x46 <= 1
 c181: x21 + x46 <= 1
 c182: x23 + x46 <= 1
 c183: x24 + x46 <= 1
 c184: x29 + x46 <= 1
 c185: x30 + x46 <= 1
 c186: x31 + x46 <= 1
 c187: x35 + x46 <= 1
 c188: x2 + x47 <= 1
 c189: x5 + x47 <= 1
 c190: x8 + x47 <= 1
 c191: x13 + x47 <= 1
 c192: x14 + x47 <= 1
 c193: x26 + x47 <= 1
 c194: x29 + x47 <= 1
 c195: x32 + x47 <= 1
 c196: x33 + x47 <= 1
 c197: x1 + x48 <= 1
 c198: x2 + x48 <= 1
 c199: x4 + x48 <= 1
 c200: x7 + x48 <= 1
 c201: x8 + x48 <= 1
 c202: x14 + x48 <= 1
 c203: x15 + x48 <= 1
 c204: x17 + x48 <= 1
 c205: x21 + x48 <= 1
 c206: x25 + x48 <= 1
 c207: x26 + x48 <= 1
 c208: x27 + x48 <= 1
 c209: x28 + x48 <= 1
 c210: x30 + x48 <= 1
 c211: x32 + x48 <= 1
 c212: x1 + x49 <= 1
 c213: x2 + x49 <= 1
 c214: x9 + x49 <= 1
 c215: x10 + x49 <= 1
 c216: x12 + x49 <= 1
 c217: x14 + x49 <= 1
 c218: x16 + x49 <= 1
 c219: x18 + x49 <= 1
 c220: x20 + x49 <= 1
 c221: x21 + x49 <= 1
 c222: x22 + x49 <= 1
 c223: x25 + x49 <= 1
 c224: x28 + x49 <= 1
 c225: x29 + x49 <= 1
 c226: x31 + x49 <= 1
 c227: x33 + x49 <= 1
 c228: x34 + x49 <= 1
 c229: x35 + x49 <= 1
 c230: x5 + x50 <= 1
 c231: x6 + x50 <= 1
 c232: x9 + x50 <= 1
 c233: x10 + x50 <= 1
 c234: x12 + x50 <= 1
 c235: x14 + x50 <= 1
 c236: x16 + x50 <= 1
 c237: x17 + x50 <= 1
 c238: x18 + x50 <= 1
 c239: x22 + x50 <= 1
 c240: x23 + x50 <= 1
 c241: x24 + x50 <= 1
 c242: x25 + x50 <= 1
 c243: x27 + x50 <= 1
 c244: x29 + x50 <= 1
 c245: x32 + x50 <= 1
 c246: x35 + x50 <= 1
 c247: x2 + x51 <= 1
 c248: x4 + x51 <= 1
 c249: x6 + x51 <= 1
 c250: x7 + x51 <= 1
 c251: x9 + x51 <= 1
 c252: x10 + x51 <= 1
 c253: x13 + x51 <= 1
 c254: x15 + x51 <= 1
 c255: x16 + x51 <= 1
 c256: x17 + x51 <= 1
 c257: x18 + x51 <= 1
 c258: x20 + x51 <= 1
 c259: x21 + x51 <= 1
 c260: x22 + x51 <= 1
 c261: x27 + x51 <= 1
 c262: x28 + x51 <= 1
 c263: x31 + x51 <= 1
 c264: x33 + x51 <= 1
 c265: x2 + x52 <= 1
 c266: x3 + x52 <= 1
 c267: x5 + x52 <= 1
 c268: x7 + x52 <= 1
 c269: x10 + x52 <= 1
 c270: x11 + x52 <= 1
 c271: x12 + x52 <= 1
 c272: x14 + x52 <= 1
 c273: x16 + x52 <= 1
 c274: x17 + x52 <= 1
 c275: x19 + x52 <= 1
 c276: x21 + x52 <= 1
 c277: x22 + x52 <= 1
 c278: x23 + x52 <= 1
 c279: x24 + x52 <= 1
 c280: x26 + x52 <= 1
 c281: x27 + x52 <= 1
 c282: x28 + x52 <= 1
 c283: x30 + x52 <= 1
 c284: x31 + x52 <= 1
 c285: x32 + x52 <= 1
 c286: x33 + x52 <= 1
 c287: x34 + x52 <= 1
 c288: x35 + x52 <= 1
 c289: x2 + x53 <= 1
 c290: x3 + x53 <= 1
 c291: x4 + x53 <= 1
 c292: x6 + x53 <= 1
 c293: x10 + x53 <= 1
 c294: x12 + x53 <= 1
 c295: x13 + x53 <= 1
 c296: x16 + x53 <= 1
 c297: x17 + x53 <= 1
 c298: x20 + x53 <= 1
 c299: x21 + x53 <= 1
 c300: x22 + x53 <= 1
 c301: x25 + x53 <= 1
 c302: x26 + x53 <= 1
 c303: x28 + x53 <= 1
 c304: x30 + x53 <= 1
 c305: x32 + x53 <= 1
 c306: x2 + x54 <= 1
 c307: x3 + x54 <= 1
 c308: x4 + x54 <= 1
 c309: x8 + x54 <= 1
 c310: x9 + x54 <= 1
 c311: x11 + x54 <= 1
 c312: x12 + x54 <= 1
 c313: x15 + x54 <= 1
 c314: x17 + x54 <= 1
 c315: x18 + x54 <= 1
 c316: x21 + x54 <= 1
 c317: x22 + x54 <= 1
 c318: x24 + x54 <= 1
 c319: x29 + x54 <= 1
 c320: x30 + x54 <= 1
 c321: x33 + x54 <= 1
 c322: x1 + x55 <= 1
 c323: x2 + x55 <= 1
 c324: x3 + x55 <= 1
 c325: x4 + x55 <= 1
 c326: x9 + x55 <= 1
 c327: x12 + x55 <= 1
 c328: x13 + x55 <= 1
 c329: x14 + x55 <= 1
 c330: x15 + x55 <= 1
 c331: x17 + x55 <= 1
 c332: x18 + x55 <= 1
 c333: x21 + x55 <= 1
 c334: x25 + x55 <= 1
 c335: x27 + x55 <= 1
 c336: x28 + x55 <= 1
 c337: x34 + x55 <= 1
 c338: x35 + x55 <= 1
 c339: x2 + x56 <= 1
 c340: x3 + x56 <= 1
 c341: x4 + x56 <= 1
 c342: x6 + x56 <= 1
 c343: x8 + x56 <= 1
 c344: x10 + x56 <= 1
 c345: x12 + x56 <= 1
 c346: x14 + x56 <= 1
 c347: x15 + x56 <= 1
 c348: x16 + x56 <= 1
 c349: x18 + x56 <= 1
 c350: x19 + x56 <= 1
 c351: x20 + x56 <= 1
 c352: x21 + x56 <= 1
 c353: x24 + x56 <= 1
 c354: x25 + x56 <= 1
 c355: x26 + x56 <= 1
 c356: x28 + x56 <= 1
 c357: x29 + x56 <= 1
 c358: x30 + x56 <= 1
 c359: x34 + x56 <= 1
 c360: x35 + x56 <= 1
 c361: x2 + x57 <= 1
 c362: x3 + x57 <= 1
 c363: x5 + x57 <= 1
 c364: x6 + x57 <= 1
 c365: x7 + x57 <= 1
 c366: x8 + x57 <= 1
 c367: x13 + x57 <= 1
 c368: x14 + x57 <= 1
 c369: x16 + x57 <= 1
 c370: x17 + x57 <= 1
 c371: x18 + x57 <= 1
 c372: x19 + x57 <= 1
 c373: x24 + x57 <= 1
 c374: x26 + x57 <= 1
 c375: x27 + x57 <= 1
 c376: x28 + x57 <= 1
 c377: x29 + x57 <= 1
 c378: x31 + x57 <= 1
 c379: x2 + x58 <= 1
 c380: x3 + x58 <= 1
 c381: x6 + x58 <= 1
 c382: x8 + x58 <= 1
 c383: x9 + x58 <= 1
 c384: x13 + x58 <= 1
 c385: x19 + x58 <= 1
 c386: x21 + x58 <= 1
 c387: x22 + x58 <= 1
 c388: x26 + x58 <= 1
 c389: x27 + x58 <= 1
 c390: x28 + x58 <= 1
 c391: x35 + x58 <= 1
 c392: x1 + x59 <= 1
 c393: x3 + x59 <= 1
 c394: x4 + x59 <= 1
 c395: x5 + x59 <= 1
 c396: x8 + x59 <= 1
 c397: x9 + x59 <= 1
 c398: x11 + x59 <= 1
 c399: x13 + x59 <= 1
 c400: x14 + x59 <= 1
 c401: x15 + x59 <= 1
 c402: x19 + x59 <= 1
 c403: x20 + x59 <= 1
 c404: x21 + x59 <= 1
 c405: x22 + x59 <= 1
 c406: x24 + x59 <= 1
 c407: x27 + x59 <= 1
 c408: x30 + x59 <= 1
 c409: x31 + x59 <= 1
 c410: x32 + x59 <= 1
 c411: x33 + x59 <= 1
 c412: x2 + x60 <= 1
 c413: x5 + x60 <= 1
 c414: x7 + x60 <= 1
 c415: x8 + x60 <= 1
 c416: x9 + x60 <= 1
 c417: x10 + x60 <= 1
 c418: x11 + x60 <= 1
 c419: x12 + x60 <= 1
 c420: x13 + x60 <= 1
 c421: x14 + x60 <= 1
 c422: x15 + x60 <= 1
 c423: x17 + x60 <= 1
 c424: x18 + x60 <= 1
 c425: x19 + x60 <= 1
 c426: x20 + x60 <= 1
 c427: x21 + x60 <= 1
 c428: x24 + x60 <= 1
 c429: x25 + x60 <= 1
 c430: x27 + x60 <= 1
 c431: x28 + x60 <= 1
 c432: x29 + x60 <= 1
 c433: x30 + x60 <= 1
 c434: x31 + x60 <= 1
 c435: x35 + x60 <= 1
 c436: x2 + x61 <= 1
 c437: x6 + x61 <= 1
 c438: x8 + x61 <= 1
 c439: x9 + x61 <= 1
 c440: x11 + x61 <= 1
 c441: x12 + x61 <= 1
 c442: x13 + x61 <= 1
 c443: x16 + x61 <= 1
 c444: x17 + x61 <= 1
 c445: x18 + x61 <= 1
 c446: x20 + x61 <= 1
 c447: x22 + x61 <= 1
 c448: x24 + x61 <= 1
 c449: x25 + x61 <= 1
 c450: x26 + x61 <= 1
 c451: x27 + x61 <= 1
 c452: x28 + x61 <= 1
 c453: x31 + x61 <= 1
 c454: x34 + x61 <= 1
 c455: x1 + x62 <= 1
 c456: x4 + x62 <= 1
 c457: x5 + x62 <= 1
 c458: x8 + x62 <= 1
 c459: x9 + x62 <= 1
 c460: x11 + x62 <= 1
 c461: x15 + x62 <= 1
 c462: x16 + x62 <= 1
 c463: x18 + x62 <= 1
 c464: x20 + x62 <= 1
 c465: x21 + x62 <= 1
 c466: x23 + x62 <= 1
 c467: x26 + x62 <= 1
 c468: x28 + x62 <= 1
 c469: x29 + x62 <= 1
 c470: x1 + x63 <= 1
 c471: x2 + x63 <= 1
 c472: x3 + x63 <= 1
 c473: x5 + x63 <= 1
 c474: x7 + x63 <= 1
 c475: x18 + x63 <= 1
 c476: x19 + x63 <= 1
 c477: x21 + x63 <= 1
 c478: x22 + x63 <= 1
 c479: x27 + x63 <= 1
 c480: x29 + x63 <= 1
 c481: x30 + x63 <= 1
 c482: x31 + x63 <= 1
 c483: x32 + x63 <= 1
 c484: x1 + x64 <= 1
 c485: x2 + x64 <= 1
 c486: x4 + x64 <= 1
 c487: x5 + x64 <= 1
 c488: x7 + x64 <= 1
 c489: x8 + x64 <= 1
 c490: x9 + x64 <= 1
 c491: x10 + x64 <= 1
 c492: x11 + x64 <= 1
 c493: x13 + x64 <= 1
 c494: x24 + x64 <= 1
 c495: x25 + x64 <= 1
 c496: x27 + x64 <= 1
 c497: x30 + x64 <= 1
 c498: x31 + x64 <= 1
 c499: x3 + x65 <= 1
 c500: x10 + x65 <= 1
 c501: x11 + x65 <= 1
 c502: x13 + x65 <= 1
 c503: x14 + x65 <= 1
 c504: x15 + x65 <= 1
 c505: x18 + x65 <= 1
 c506: x19 + x65 <= 1
 c507: x21 + x65 <= 1
 c508: x22 + x65 <= 1
 c509: x23 + x65 <= 1
 c510: x24 + x65 <= 1
 c511: x25 + x65 <= 1
 c512: x26 + x65 <= 1
 c513: x27 + x65 <= 1
 c514: x28 + x65 <= 1
 c515: x29 + x65 <= 1
 c516: x32 + x65 <= 1
 c517: x33 + x65 <= 1
 c518: x1 + x66 <= 1
 c519: x7 + x66 <= 1
 c520: x8 + x66 <= 1
 c521: x9 + x66 <= 1
 c522: x10 + x66 <= 1
 c523: x12 + x66 <= 1
 c524: x15 + x66 <= 1
 c525: x23 + x66 <= 1
 c526: x24 + x66 <= 1
 c527: x25 + x66 <= 1
 c528: x26 + x66 <= 1
 c529: x29 + x66 <= 1
 c530: x30 + x66 <= 1
 c531: x33 + x66 <= 1
 c532: x1 + x67 <= 1
 c533: x5 + x67 <= 1
 c534: x6 + x67 <= 1
 c535: x7 + x67 <= 1
 c536: x14 + x67 <= 1
 c537: x18 + x67 <= 1
 c538: x19 + x67 <= 1
 c539: x21 + x67 <= 1
 c540: x24 + x67 <= 1
 c541: x27 + x67 <= 1
 c542: x28 + x67 <= 1
 c543: x31 + x67 <= 1
 c544: x32 + x67 <= 1
 c545: x33 + x67 <= 1
 c546: x1 + x68 <= 1
 c547: x3 + x68 <= 1
 c548: x4 + x68 <= 1
 c549: x6 + x68 <= 1
 c550: x8 + x68 <= 1
 c551: x10 + x68 <= 1
 c552: x11 + x68 <= 1
 c553: x13 + x68 <= 1
 c554: x14 + x68 <= 1
 c555: x16 + x68 <= 1
 c556: x17 + x68 <= 1
 c557: x19 + x68 <= 1
 c558: x20 + x68 <= 1
 c559: x21 + x68 <= 1
 c560: x23 + x68 <= 1
 c561: x25 + x68 <= 1
 c562: x27 + x68 <= 1
 c563: x29 + x68 <= 1
 c564: x32 + x68 <= 1
 c565: x35 + x68 <= 1
 c566: x1 + x69 <= 1
 c567: x2 + x69 <= 1
 c568: x3 + x69 <= 1
 c569: x4 + x69 <= 1
 c570: x6 + x69 <= 1
 c571: x7 + x69 <= 1
 c572: x10 + x69 <= 1
 c573: x11 + x69 <= 1
 c574: x13 + x69 <= 1
 c575: x15 + x69 <= 1
 c576: x16 + x69 <= 1
 c577: x19 + x69 <= 1
 c578: x20 + x69 <= 1
 c579: x21 + x69 <= 1
 c580: x22 + x69 <= 1
 c581: x23 + x69 <= 1
 c582: x24 + x69 <= 1
 c583: x25 + x69 <= 1
 c584: x26 + x69 <= 1
 c585: x28 + x69 <= 1
 c586: x29 + x69 <= 1
 c587: x31 + x69 <= 1
 c588: x32 + x69 <= 1
 c589: x33 + x69 <= 1
 c590: x35 + x69 <= 1
 c591: x1 + x70 <= 1
 c592: x2 + x70 <= 1
 c593: x3 + x70 <= 1
 c594: x5 + x70 <= 1
 c595: x6 + x70 <= 1
 c596: x7 + x70 <= 1
 c597: x10 + x70 <= 1
 c598: x13 + x70 <= 1
 c599: x14 + x70 <= 1
 c600: x15 + x70 <= 1
 c601: x17 + x70 <= 1
 c602: x18 + x70 <= 1
 c603: x21 + x70 <= 1
 c604: x22 + x70 <= 1
 c605: x27 + x70 <= 1
 c606: x28 + x70 <= 1
 c607: x29 + x70 <= 1
 c608: x30 + x70 <= 1
 c609: x32 + x70 <= 1
 c610: x33 + x70 <= 1
 c611: x34 + x70 <= 1
Bounds
 0 <= x1 <= 1
 0 <= x2 <= 1
 0 <= x3 <= 1
 0 <= x4 <= 1
 0 <= x5 <= 1
 0 <= x6 <= 1
 0 <= x7 <= 1
 0 <= x8 <= 1
 0 <= x9 <= 1
 0 <= x10 <= 1
 0 <= x11 <= 1
 0 <= x12 <= 1
 0 <= x13 <= 1
 0 <= x14 <= 1
 0 <= x15 <= 1
 0 <= x16 <= 1
 0 <= x17 <= 1
 0 <= x18 <= 1
 0 <= x19 <= 1
 0 <= x20 <= 1
 0 <= x21 <= 1
 0 <= x22 <= 1
 0 <= x23 <= 1
 0 <= x24 <= 1
 0 <= x25 <= 1
 0 <= x26 <= 1
 0 <= x27 <= 1
 0 <= x28 <= 1
 0 <= x29 <= 1
 0 <= x30 <= 1
 0 <= x31 <= 1
 0 <= x32 <= 1
 0 <= x33 <= 1
 0 <= x34 <= 1
 0 <= x35 <= 1
 0 <= x36 <= 1
 0 <= x37 <= 1
 0 <= x38 <= 1
 0 <= x39 <= 1
 0 <= x40 <= 1
 0 <= x41 <= 1
 0 <= x42 <= 1
 0 <= x43 <= 1
 0 <= x44 <= 1
 0 <= x45 <= 1
 0 <= x46 <= 1
 0 <= x47 <= 1
 0 <= x48 <= 1
 0 <= x49 <= 1
 0 <= x50 <= 1
 0 <= x51 <= 1
 0 <= x52 <= 1
 0 <= x53 <= 1
 0 <= x54 <= 1
 0 <= x55 <= 1
 0 <= x56 <= 1
 0 <= x57 <= 1
 0 <= x58 <= 1
 0 <= x59 <= 1
 0 <= x60 <= 1
 0 <= x61 <= 1
 0 <= x62 <= 1
 0 <= x63 <= 1
 0 <= x64 <= 1
 0 <= x65 <= 1
 0 <= x66 <= 1
 0 <= x67 <= 1
 0 <= x68 <= 1
 0 <= x69 <= 1
 0 <= x70 <= 1
Binaries
 x1  x2  x3  x4  x5  x6  x7  x8  x9  x10  x11  x12  x13  x14  x15  x16  x17 
 x18  x19  x20  x21  x22  x23  x24  x25  x26  x27  x28  x29  x30  x31  x32 
 x33  x34  x35  x36  x37  x38  x39  x40  x41  x42  x43  x44  x45  x46  x47 
 x48  x49  x50  x51  x52  x53  x54  x55  x56  x57  x58  x59  x60  x61  x62 
 x63  x64  x65  x66  x67  x68  x69  x70 
End
